proyfinal/src/viki/013/andrea/andrea-localstore/experimentInOfficeAgust.take6/worker_2/9f2388c6-5882-4a36-9ffe-56953b451d7a.als.cnf.out
Reading from standard input... Use '--help' for help.
============================[ Problem Statistics ]=============================
|                                                                             |
|  Number of variables:         87638                                         |
|  Number of clauses:          161767                                         |
|  Parse time:                   0.03 s                                       |
|                                                                             |
============================[ Search Statistics ]==============================
| Conflicts |          ORIGINAL         |          LEARNT          | Progress |
|           |    Vars  Clauses Literals |    Limit  Clauses Lit/Cl |          |
===============================================================================
|       100 |   62895   107259   267404 |    39328      100     12 | 28.233 % |
|       250 |   62895   107259   267404 |    43261      250     27 | 28.233 % |
|       475 |   62895   107259   267404 |    47587      475     44 | 28.233 % |
|       812 |   62895   107259   267404 |    52345      812     50 | 28.233 % |
|      1318 |   62895   107259   267404 |    57580     1318     63 | 28.233 % |
|      2077 |   62895   107259   267404 |    63338     2077     64 | 28.233 % |
|      3216 |   62895   107259   267404 |    69672     3216     72 | 28.233 % |
|      4924 |   62894   107215   267314 |    76639     4922     69 | 28.234 % |
|      7486 |   62894   107215   267314 |    84303     7484     72 | 28.234 % |
|     11330 |   56734    87897   219712 |    92734    10678     70 | 35.263 % |
|     17096 |   56675    87602   219030 |   102007    15601     66 | 35.331 % |
===============================================================================
restarts              : 74
conflicts             : 20970          (8449 /sec)
decisions             : 63689          (0.00 % random) (25662 /sec)
propagations          : 25812995       (10400594 /sec)
conflict literals     : 1350151        (50.19 % deleted)
Memory used           : 28.85 MB
CPU time              : 2.48188 s

UNSATISFIABLE
